67
89
122
136
192
299
162
138
70
220
103
207
90
47
40
108
276
72
137
71
130
194
61
183
272
66
50
93
81
39
69
81
48
169
462
76
121
191
65
44
56
49
69
121
124
136
192
264
53
153
145
113
141
99
237
292
276
177
70
202
209
89
166
79
147
0
117
67
66
82
138
206
96
208
87
56
70
171
122
114
141
172
86
166
122
63
126
152
125
103
80
56
151
147
132
71
118
59
0
109
